p tw 40 520
0 1
0 2
0 3
0 4
0 5
0 6
0 8
0 9
0 13
0 14
0 10
0 16
0 21
0 23
0 28
0 29
0 18
0 22
0 12
0 19
0 38
0 11
0 17
0 24
0 7
0 26
0 32
0 36
0 37
0 15
0 35
1 2
1 3
1 4
1 5
1 6
1 8
1 11
1 18
1 26
1 27
1 20
1 21
1 22
1 32
1 33
1 7
1 13
1 29
1 36
1 31
1 34
1 12
1 14
1 17
1 30
1 39
1 9
1 24
1 37
1 19
1 25
1 15
1 35
1 28
2 3
2 4
2 5
2 6
2 7
2 8
2 9
2 10
2 11
2 12
2 18
2 26
2 27
2 17
2 15
2 20
2 23
2 32
2 35
2 24
2 39
2 13
2 14
2 22
2 21
2 28
2 37
3 4
3 5
3 6
3 8
3 9
3 13
3 14
3 16
3 20
3 21
3 22
3 23
3 28
3 29
3 7
3 12
3 17
3 15
3 19
3 34
3 18
3 26
4 5
4 6
4 8
4 9
4 13
4 14
4 20
4 21
4 22
4 32
4 33
4 17
4 23
4 34
4 39
4 15
4 26
4 35
5 6
5 7
5 17
5 19
5 24
5 25
5 26
5 10
5 14
5 18
5 22
5 23
5 15
5 16
5 20
5 27
5 39
5 11
5 29
5 8
5 9
5 35
5 38
5 12
5 13
5 36
6 16
6 20
6 21
6 22
6 23
6 8
6 9
6 10
6 14
6 30
6 31
6 32
6 33
6 7
6 13
6 29
6 36
6 18
6 34
6 37
6 24
7 8
7 9
7 10
7 11
7 12
7 17
7 19
7 24
7 25
7 26
7 13
7 20
7 29
7 36
7 18
7 23
7 28
7 35
7 14
7 33
7 37
7 27
7 38
8 9
8 10
8 11
8 12
8 13
8 14
8 16
8 18
8 26
8 27
8 23
8 30
8 31
8 32
8 33
8 19
8 21
8 34
8 35
8 17
8 24
8 39
8 37
8 22
8 38
9 10
9 11
9 12
9 13
9 14
9 16
9 17
9 25
9 27
9 34
9 35
9 21
9 29
9 30
9 32
9 33
9 24
9 39
9 18
9 20
9 22
9 26
10 11
10 12
10 14
10 16
10 21
10 29
10 30
10 32
10 33
10 18
10 22
10 23
10 34
10 37
10 26
10 27
10 35
10 38
11 12
11 13
11 15
11 16
11 17
11 18
11 19
11 26
11 27
11 24
11 29
11 14
11 32
11 36
11 33
11 37
12 17
12 25
12 27
12 34
12 35
12 13
12 18
12 19
12 28
12 38
12 14
12 30
12 39
12 15
12 21
12 26
12 36
13 14
13 15
13 16
13 17
13 18
13 19
13 20
13 29
13 36
13 28
13 38
13 21
13 31
13 34
13 30
13 39
13 25
13 27
13 26
14 16
14 21
14 23
14 28
14 29
14 18
14 22
14 17
14 30
14 39
14 19
14 26
14 32
14 36
14 15
14 34
14 24
14 37
15 16
15 17
15 18
15 19
15 20
15 24
15 27
15 39
15 21
15 34
15 23
15 32
15 35
15 26
15 28
15 37
16 17
16 18
16 19
16 20
16 21
16 22
16 23
16 24
16 27
16 39
17 18
17 19
17 24
17 25
17 26
17 27
17 34
17 35
17 30
17 39
17 29
17 20
17 23
17 33
17 21
17 32
17 37
18 19
18 26
18 27
18 22
18 23
18 34
18 37
18 28
18 38
18 21
18 31
18 36
18 24
18 29
18 35
18 20
18 25
19 24
19 25
19 26
19 28
19 38
19 21
19 23
19 30
19 34
19 35
19 29
19 32
19 36
19 27
20 21
20 22
20 23
20 32
20 33
20 29
20 36
20 24
20 27
20 39
20 34
20 35
20 26
21 22
21 23
21 28
21 29
21 32
21 33
21 30
21 31
21 34
21 36
21 35
21 37
21 24
21 39
22 23
22 32
22 33
22 34
22 37
22 26
22 24
22 38
23 28
23 29
23 30
23 31
23 32
23 33
23 34
23 37
23 35
23 39
23 27
24 25
24 26
24 27
24 39
24 29
24 33
24 37
24 32
24 38
25 26
25 27
25 34
25 35
25 36
26 27
26 32
26 36
26 35
26 38
27 34
27 35
27 39
27 32
27 36
27 38
28 29
28 38
28 35
28 37
29 36
29 30
29 32
29 33
29 35
29 37
29 39
30 31
30 32
30 33
30 34
30 35
30 39
31 32
31 33
31 34
31 36
32 33
32 36
32 35
32 37
32 38
32 39
33 34
33 39
33 37
34 35
34 37
34 36
34 39
35 38
35 37
37 38
37 39
